Maximize
  - 3.6220090276317 edge_0_1_0_0 - 2.200523042404 edge_0_2_0_0
   - 2.339089298273 edge_0_3_0_0 - 0.5538843105985201 edge_0_7_0_0
   - 3.1764783417878 edge_0_14_0_0 - 2.4236714349705 edge_0_15_0_0
   - 0.1327633478141292 edge_1_2_0_0 - 0.3742409394824245 edge_1_3_0_0
   - 0.505364030761617 edge_1_7_0_0 - 0.9296310562977054 edge_1_8_0_0
   - 1.319788467796011 edge_1_9_0_0 - 1.456558036759852 edge_1_10_0_0
   - 0.4098269984467759 edge_1_11_0_0 - 1.606935535367362 edge_1_12_0_0
   - 1.288971538108677 edge_1_15_0_0 + 0.2884346738424815 edge_2_1_0_0
   + 3.183324517894358 edge_2_3_0_0 + 0.8996645760402832 edge_2_7_0_0
   - 0.1708927211512739 edge_2_8_0_0 + 0.3798595760329111 edge_2_9_0_0
   - 0.3901169150716516 edge_2_10_0_0 + 0.1165619894099709 edge_2_11_0_0
   + 0.4062374873761493 edge_2_12_0_0 + 0.7605893257410917 edge_2_14_0_0
   + 1.248114831462012 edge_2_15_0_0 + 0.3658836973753778 edge_3_1_0_0
   + 0.8602188097502796 edge_3_2_0_0 + 0.0967878040822421 edge_3_7_0_0
   - 0.8044456861522219 edge_3_8_0_0 - 1.058999237520133 edge_3_9_0_0
   - 1.372557151277531 edge_3_10_0_0 - 0.2582752976721074 edge_3_11_0_0
   - 0.8574456913194556 edge_3_12_0_0 - 0.2716573225749588 edge_3_14_0_0
   - 0.0335510180483466 edge_3_15_0_0 + 1.279408049321387 edge_7_1_0_0
   + 1.491647483407621 edge_7_2_0_0 + 1.688974700497038 edge_7_3_0_0
   + 0.525834641374866 edge_7_8_0_0 + 1.613856521551976 edge_7_9_0_0
   + 0.4872680311892631 edge_7_10_0_0 + 0.4539272633930146 edge_7_11_0_0
   + 1.587737796810127 edge_7_12_0_0 + 1.307528927652415 edge_7_14_0_0
   + 2.708848578560084 edge_7_15_0_0 - 0.4407161331369017 edge_8_1_0_0
   - 0.2914255072340399 edge_8_2_0_0 - 0.2758412231337283 edge_8_3_0_0
   + 0.4143131268945537 edge_8_9_0_0 + 0.6474704690405937 edge_8_10_0_0
   + 0.0529326477405844 edge_8_11_0_0 + 0.2251468748623167 edge_8_12_0_0
   - 0.3224924807049886 edge_8_14_0_0 + 0.262827565942876 edge_8_15_0_0
   - 0.9960288274884768 edge_9_1_0_0 - 1.060718860249892 edge_9_2_0_0
   - 0.7955904271745803 edge_9_3_0_0 - 0.9030546710617988 edge_9_7_0_0
   + 1.918737188381843 edge_9_8_0_0 + 0.5355173734530887 edge_9_10_0_0
   + 0.1482033280353461 edge_9_11_0_0 + 1.105239469484828 edge_9_12_0_0
   + 0.1715079477040917 edge_9_14_0_0 + 0.2390272891633464 edge_9_15_0_0
   + 0.0281154258478054 edge_10_8_0_0 + 0.163278524293791 edge_10_9_0_0
   + 0.998096169583026 edge_10_12_0_0 - 0.5106255260292936 edge_11_1_0_0
   - 0.3965180598265174 edge_11_2_0_0 - 0.3933958690650038 edge_11_3_0_0
   - 0.0925557635726788 edge_11_8_0_0 + 0.0365403094563406 edge_11_9_0_0
   - 0.3614883073471465 edge_11_10_0_0 - 0.1116165868700044 edge_11_12_0_0
   + 0.8528186165240695 edge_11_14_0_0 + 0.5383662488476737 edge_11_15_0_0
   - 1.390458726609971 edge_12_1_0_0 - 1.16969109493053 edge_12_2_0_0
   - 1.247039551065622 edge_12_3_0_0 + 0.8230063767013145 edge_12_8_0_0
   + 0.7631946336664193 edge_12_9_0_0 + 2.795216804905381 edge_12_10_0_0
   - 0.1587296312471315 edge_12_11_0_0 - 0.2838901817278481 edge_12_14_0_0
   - 1.043993020723515 edge_12_15_0_0 - 1.383453772406927 edge_14_1_0_0
   - 0.8696465032084495 edge_14_2_0_0 - 0.7010454800293329 edge_14_3_0_0
   - 1.218299264187648 edge_14_7_0_0 - 0.3304214057803322 edge_14_8_0_0
   + 0.00524413630644603 edge_14_9_0_0 - 0.6833024720640672 edge_14_10_0_0
   + 0.2556352716341645 edge_14_11_0_0 - 0.177588421738934 edge_14_12_0_0
   + 0.4821722862051837 edge_14_15_0_0 - 0.9004662424834337 edge_15_1_0_0
   - 0.2630229231780482 edge_15_2_0_0 - 0.3414017446523558 edge_15_3_0_0
   + 0.3256193735623555 edge_15_7_0_0 + 0.2352374952256656 edge_15_8_0_0
   + 1.553484893824071 edge_15_9_0_0 + 0.1788577087758141 edge_15_10_0_0
   + 1.009660563347395 edge_15_11_0_0 + 1.031753923178661 edge_15_12_0_0
   + 3.2581934193676 edge_15_14_0_0
Subject To
 one_parent_1: edge_0_1_0_0 + edge_2_1_0_0 + edge_3_1_0_0 + edge_7_1_0_0
   + edge_8_1_0_0 + edge_9_1_0_0 + edge_11_1_0_0 + edge_12_1_0_0
   + edge_14_1_0_0 + edge_15_1_0_0 = 1
 consume_one_flow_unit_1: flow_0_1_0_0 - flow_1_2_0_0 - flow_1_3_0_0
   - flow_1_7_0_0 - flow_1_8_0_0 - flow_1_9_0_0 - flow_1_10_0_0
   - flow_1_11_0_0 - flow_1_12_0_0 - flow_1_15_0_0 + flow_2_1_0_0
   + flow_3_1_0_0 + flow_7_1_0_0 + flow_8_1_0_0 + flow_9_1_0_0
   + flow_11_1_0_0 + flow_12_1_0_0 + flow_14_1_0_0 + flow_15_1_0_0 = 1
 one_parent_2: edge_0_2_0_0 + edge_1_2_0_0 + edge_3_2_0_0 + edge_7_2_0_0
   + edge_8_2_0_0 + edge_9_2_0_0 + edge_11_2_0_0 + edge_12_2_0_0
   + edge_14_2_0_0 + edge_15_2_0_0 = 1
 consume_one_flow_unit_2: flow_0_2_0_0 + flow_1_2_0_0 - flow_2_1_0_0
   - flow_2_3_0_0 - flow_2_7_0_0 - flow_2_8_0_0 - flow_2_9_0_0
   - flow_2_10_0_0 - flow_2_11_0_0 - flow_2_12_0_0 - flow_2_14_0_0
   - flow_2_15_0_0 + flow_3_2_0_0 + flow_7_2_0_0 + flow_8_2_0_0
   + flow_9_2_0_0 + flow_11_2_0_0 + flow_12_2_0_0 + flow_14_2_0_0
   + flow_15_2_0_0 = 1
 one_parent_3: edge_0_3_0_0 + edge_1_3_0_0 + edge_2_3_0_0 + edge_7_3_0_0
   + edge_8_3_0_0 + edge_9_3_0_0 + edge_11_3_0_0 + edge_12_3_0_0
   + edge_14_3_0_0 + edge_15_3_0_0 = 1
 consume_one_flow_unit_3: flow_0_3_0_0 + flow_1_3_0_0 + flow_2_3_0_0
   - flow_3_1_0_0 - flow_3_2_0_0 - flow_3_7_0_0 - flow_3_8_0_0
   - flow_3_9_0_0 - flow_3_10_0_0 - flow_3_11_0_0 - flow_3_12_0_0
   - flow_3_14_0_0 - flow_3_15_0_0 + flow_7_3_0_0 + flow_8_3_0_0
   + flow_9_3_0_0 + flow_11_3_0_0 + flow_12_3_0_0 + flow_14_3_0_0
   + flow_15_3_0_0 = 1
 one_parent_4: = 1
 consume_one_flow_unit_4: = 1
 one_parent_5: = 1
 consume_one_flow_unit_5: = 1
 one_parent_6: = 1
 consume_one_flow_unit_6: = 1
 one_parent_7: edge_0_7_0_0 + edge_1_7_0_0 + edge_2_7_0_0 + edge_3_7_0_0
   + edge_9_7_0_0 + edge_14_7_0_0 + edge_15_7_0_0 = 1
 consume_one_flow_unit_7: flow_0_7_0_0 + flow_1_7_0_0 + flow_2_7_0_0
   + flow_3_7_0_0 - flow_7_1_0_0 - flow_7_2_0_0 - flow_7_3_0_0
   - flow_7_8_0_0 - flow_7_9_0_0 - flow_7_10_0_0 - flow_7_11_0_0
   - flow_7_12_0_0 - flow_7_14_0_0 - flow_7_15_0_0 + flow_9_7_0_0
   + flow_14_7_0_0 + flow_15_7_0_0 = 1
 one_parent_8: edge_1_8_0_0 + edge_2_8_0_0 + edge_3_8_0_0 + edge_7_8_0_0
   + edge_9_8_0_0 + edge_10_8_0_0 + edge_11_8_0_0 + edge_12_8_0_0
   + edge_14_8_0_0 + edge_15_8_0_0 = 1
 consume_one_flow_unit_8: flow_1_8_0_0 + flow_2_8_0_0 + flow_3_8_0_0
   + flow_7_8_0_0 - flow_8_1_0_0 - flow_8_2_0_0 - flow_8_3_0_0
   - flow_8_9_0_0 - flow_8_10_0_0 - flow_8_11_0_0 - flow_8_12_0_0
   - flow_8_14_0_0 - flow_8_15_0_0 + flow_9_8_0_0 + flow_10_8_0_0
   + flow_11_8_0_0 + flow_12_8_0_0 + flow_14_8_0_0 + flow_15_8_0_0 = 1
 one_parent_9: edge_1_9_0_0 + edge_2_9_0_0 + edge_3_9_0_0 + edge_7_9_0_0
   + edge_8_9_0_0 + edge_10_9_0_0 + edge_11_9_0_0 + edge_12_9_0_0
   + edge_14_9_0_0 + edge_15_9_0_0 = 1
 consume_one_flow_unit_9: flow_1_9_0_0 + flow_2_9_0_0 + flow_3_9_0_0
   + flow_7_9_0_0 + flow_8_9_0_0 - flow_9_1_0_0 - flow_9_2_0_0
   - flow_9_3_0_0 - flow_9_7_0_0 - flow_9_8_0_0 - flow_9_10_0_0
   - flow_9_11_0_0 - flow_9_12_0_0 - flow_9_14_0_0 - flow_9_15_0_0
   + flow_10_9_0_0 + flow_11_9_0_0 + flow_12_9_0_0 + flow_14_9_0_0
   + flow_15_9_0_0 = 1
 one_parent_10: edge_1_10_0_0 + edge_2_10_0_0 + edge_3_10_0_0
   + edge_7_10_0_0 + edge_8_10_0_0 + edge_9_10_0_0 + edge_11_10_0_0
   + edge_12_10_0_0 + edge_14_10_0_0 + edge_15_10_0_0 = 1
 consume_one_flow_unit_10: flow_1_10_0_0 + flow_2_10_0_0 + flow_3_10_0_0
   + flow_7_10_0_0 + flow_8_10_0_0 + flow_9_10_0_0 - flow_10_8_0_0
   - flow_10_9_0_0 - flow_10_12_0_0 + flow_11_10_0_0 + flow_12_10_0_0
   + flow_14_10_0_0 + flow_15_10_0_0 = 1
 one_parent_11: edge_1_11_0_0 + edge_2_11_0_0 + edge_3_11_0_0
   + edge_7_11_0_0 + edge_8_11_0_0 + edge_9_11_0_0 + edge_12_11_0_0
   + edge_14_11_0_0 + edge_15_11_0_0 = 1
 consume_one_flow_unit_11: flow_1_11_0_0 + flow_2_11_0_0 + flow_3_11_0_0
   + flow_7_11_0_0 + flow_8_11_0_0 + flow_9_11_0_0 - flow_11_1_0_0
   - flow_11_2_0_0 - flow_11_3_0_0 - flow_11_8_0_0 - flow_11_9_0_0
   - flow_11_10_0_0 - flow_11_12_0_0 - flow_11_14_0_0 - flow_11_15_0_0
   + flow_12_11_0_0 + flow_14_11_0_0 + flow_15_11_0_0 = 1
 one_parent_12: edge_1_12_0_0 + edge_2_12_0_0 + edge_3_12_0_0
   + edge_7_12_0_0 + edge_8_12_0_0 + edge_9_12_0_0 + edge_10_12_0_0
   + edge_11_12_0_0 + edge_14_12_0_0 + edge_15_12_0_0 = 1
 consume_one_flow_unit_12: flow_1_12_0_0 + flow_2_12_0_0 + flow_3_12_0_0
   + flow_7_12_0_0 + flow_8_12_0_0 + flow_9_12_0_0 + flow_10_12_0_0
   + flow_11_12_0_0 - flow_12_1_0_0 - flow_12_2_0_0 - flow_12_3_0_0
   - flow_12_8_0_0 - flow_12_9_0_0 - flow_12_10_0_0 - flow_12_11_0_0
   - flow_12_14_0_0 - flow_12_15_0_0 + flow_14_12_0_0 + flow_15_12_0_0 = 1
 one_parent_13: = 1
 consume_one_flow_unit_13: = 1
 one_parent_14: edge_0_14_0_0 + edge_2_14_0_0 + edge_3_14_0_0
   + edge_7_14_0_0 + edge_8_14_0_0 + edge_9_14_0_0 + edge_11_14_0_0
   + edge_12_14_0_0 + edge_15_14_0_0 = 1
 consume_one_flow_unit_14: flow_0_14_0_0 + flow_2_14_0_0 + flow_3_14_0_0
   + flow_7_14_0_0 + flow_8_14_0_0 + flow_9_14_0_0 + flow_11_14_0_0
   + flow_12_14_0_0 - flow_14_1_0_0 - flow_14_2_0_0 - flow_14_3_0_0
   - flow_14_7_0_0 - flow_14_8_0_0 - flow_14_9_0_0 - flow_14_10_0_0
   - flow_14_11_0_0 - flow_14_12_0_0 - flow_14_15_0_0 + flow_15_14_0_0 = 1
 one_parent_15: edge_0_15_0_0 + edge_1_15_0_0 + edge_2_15_0_0
   + edge_3_15_0_0 + edge_7_15_0_0 + edge_8_15_0_0 + edge_9_15_0_0
   + edge_11_15_0_0 + edge_12_15_0_0 + edge_14_15_0_0 = 1
 consume_one_flow_unit_15: flow_0_15_0_0 + flow_1_15_0_0 + flow_2_15_0_0
   + flow_3_15_0_0 + flow_7_15_0_0 + flow_8_15_0_0 + flow_9_15_0_0
   + flow_11_15_0_0 + flow_12_15_0_0 + flow_14_15_0_0 - flow_15_1_0_0
   - flow_15_2_0_0 - flow_15_3_0_0 - flow_15_7_0_0 - flow_15_8_0_0
   - flow_15_9_0_0 - flow_15_10_0_0 - flow_15_11_0_0 - flow_15_12_0_0
   - flow_15_14_0_0 = 1
 one_parent_16: = 1
 consume_one_flow_unit_16: = 1
 root_flow: flow_0_1_0_0 + flow_0_2_0_0 + flow_0_3_0_0 + flow_0_7_0_0
   + flow_0_14_0_0 + flow_0_15_0_0 = 16
 inactive_no_flow_0_1_0_0: flow_0_1_0_0 - 1000 edge_0_1_0_0 <= 0
 inactive_no_flow_0_2_0_0: flow_0_2_0_0 - 1000 edge_0_2_0_0 <= 0
 inactive_no_flow_0_3_0_0: flow_0_3_0_0 - 1000 edge_0_3_0_0 <= 0
 inactive_no_flow_0_7_0_0: flow_0_7_0_0 - 1000 edge_0_7_0_0 <= 0
 inactive_no_flow_0_14_0_0: flow_0_14_0_0 - 1000 edge_0_14_0_0 <= 0
 inactive_no_flow_0_15_0_0: flow_0_15_0_0 - 1000 edge_0_15_0_0 <= 0
 inactive_no_flow_1_2_0_0: flow_1_2_0_0 - 1000 edge_1_2_0_0 <= 0
 inactive_no_flow_1_3_0_0: flow_1_3_0_0 - 1000 edge_1_3_0_0 <= 0
 inactive_no_flow_1_7_0_0: flow_1_7_0_0 - 1000 edge_1_7_0_0 <= 0
 inactive_no_flow_1_8_0_0: flow_1_8_0_0 - 1000 edge_1_8_0_0 <= 0
 inactive_no_flow_1_9_0_0: flow_1_9_0_0 - 1000 edge_1_9_0_0 <= 0
 inactive_no_flow_1_10_0_0: flow_1_10_0_0 - 1000 edge_1_10_0_0 <= 0
 inactive_no_flow_1_11_0_0: flow_1_11_0_0 - 1000 edge_1_11_0_0 <= 0
 inactive_no_flow_1_12_0_0: flow_1_12_0_0 - 1000 edge_1_12_0_0 <= 0
 inactive_no_flow_1_15_0_0: flow_1_15_0_0 - 1000 edge_1_15_0_0 <= 0
 inactive_no_flow_2_1_0_0: flow_2_1_0_0 - 1000 edge_2_1_0_0 <= 0
 inactive_no_flow_2_3_0_0: flow_2_3_0_0 - 1000 edge_2_3_0_0 <= 0
 inactive_no_flow_2_7_0_0: flow_2_7_0_0 - 1000 edge_2_7_0_0 <= 0
 inactive_no_flow_2_8_0_0: flow_2_8_0_0 - 1000 edge_2_8_0_0 <= 0
 inactive_no_flow_2_9_0_0: flow_2_9_0_0 - 1000 edge_2_9_0_0 <= 0
 inactive_no_flow_2_10_0_0: flow_2_10_0_0 - 1000 edge_2_10_0_0 <= 0
 inactive_no_flow_2_11_0_0: flow_2_11_0_0 - 1000 edge_2_11_0_0 <= 0
 inactive_no_flow_2_12_0_0: flow_2_12_0_0 - 1000 edge_2_12_0_0 <= 0
 inactive_no_flow_2_14_0_0: flow_2_14_0_0 - 1000 edge_2_14_0_0 <= 0
 inactive_no_flow_2_15_0_0: flow_2_15_0_0 - 1000 edge_2_15_0_0 <= 0
 inactive_no_flow_3_1_0_0: flow_3_1_0_0 - 1000 edge_3_1_0_0 <= 0
 inactive_no_flow_3_2_0_0: flow_3_2_0_0 - 1000 edge_3_2_0_0 <= 0
 inactive_no_flow_3_7_0_0: flow_3_7_0_0 - 1000 edge_3_7_0_0 <= 0
 inactive_no_flow_3_8_0_0: flow_3_8_0_0 - 1000 edge_3_8_0_0 <= 0
 inactive_no_flow_3_9_0_0: flow_3_9_0_0 - 1000 edge_3_9_0_0 <= 0
 inactive_no_flow_3_10_0_0: flow_3_10_0_0 - 1000 edge_3_10_0_0 <= 0
 inactive_no_flow_3_11_0_0: flow_3_11_0_0 - 1000 edge_3_11_0_0 <= 0
 inactive_no_flow_3_12_0_0: flow_3_12_0_0 - 1000 edge_3_12_0_0 <= 0
 inactive_no_flow_3_14_0_0: flow_3_14_0_0 - 1000 edge_3_14_0_0 <= 0
 inactive_no_flow_3_15_0_0: flow_3_15_0_0 - 1000 edge_3_15_0_0 <= 0
 inactive_no_flow_7_1_0_0: flow_7_1_0_0 - 1000 edge_7_1_0_0 <= 0
 inactive_no_flow_7_2_0_0: flow_7_2_0_0 - 1000 edge_7_2_0_0 <= 0
 inactive_no_flow_7_3_0_0: flow_7_3_0_0 - 1000 edge_7_3_0_0 <= 0
 inactive_no_flow_7_8_0_0: flow_7_8_0_0 - 1000 edge_7_8_0_0 <= 0
 inactive_no_flow_7_9_0_0: flow_7_9_0_0 - 1000 edge_7_9_0_0 <= 0
 inactive_no_flow_7_10_0_0: flow_7_10_0_0 - 1000 edge_7_10_0_0 <= 0
 inactive_no_flow_7_11_0_0: flow_7_11_0_0 - 1000 edge_7_11_0_0 <= 0
 inactive_no_flow_7_12_0_0: flow_7_12_0_0 - 1000 edge_7_12_0_0 <= 0
 inactive_no_flow_7_14_0_0: flow_7_14_0_0 - 1000 edge_7_14_0_0 <= 0
 inactive_no_flow_7_15_0_0: flow_7_15_0_0 - 1000 edge_7_15_0_0 <= 0
 inactive_no_flow_8_1_0_0: flow_8_1_0_0 - 1000 edge_8_1_0_0 <= 0
 inactive_no_flow_8_2_0_0: flow_8_2_0_0 - 1000 edge_8_2_0_0 <= 0
 inactive_no_flow_8_3_0_0: flow_8_3_0_0 - 1000 edge_8_3_0_0 <= 0
 inactive_no_flow_8_9_0_0: flow_8_9_0_0 - 1000 edge_8_9_0_0 <= 0
 inactive_no_flow_8_10_0_0: flow_8_10_0_0 - 1000 edge_8_10_0_0 <= 0
 inactive_no_flow_8_11_0_0: flow_8_11_0_0 - 1000 edge_8_11_0_0 <= 0
 inactive_no_flow_8_12_0_0: flow_8_12_0_0 - 1000 edge_8_12_0_0 <= 0
 inactive_no_flow_8_14_0_0: flow_8_14_0_0 - 1000 edge_8_14_0_0 <= 0
 inactive_no_flow_8_15_0_0: flow_8_15_0_0 - 1000 edge_8_15_0_0 <= 0
 inactive_no_flow_9_1_0_0: flow_9_1_0_0 - 1000 edge_9_1_0_0 <= 0
 inactive_no_flow_9_2_0_0: flow_9_2_0_0 - 1000 edge_9_2_0_0 <= 0
 inactive_no_flow_9_3_0_0: flow_9_3_0_0 - 1000 edge_9_3_0_0 <= 0
 inactive_no_flow_9_7_0_0: flow_9_7_0_0 - 1000 edge_9_7_0_0 <= 0
 inactive_no_flow_9_8_0_0: flow_9_8_0_0 - 1000 edge_9_8_0_0 <= 0
 inactive_no_flow_9_10_0_0: flow_9_10_0_0 - 1000 edge_9_10_0_0 <= 0
 inactive_no_flow_9_11_0_0: flow_9_11_0_0 - 1000 edge_9_11_0_0 <= 0
 inactive_no_flow_9_12_0_0: flow_9_12_0_0 - 1000 edge_9_12_0_0 <= 0
 inactive_no_flow_9_14_0_0: flow_9_14_0_0 - 1000 edge_9_14_0_0 <= 0
 inactive_no_flow_9_15_0_0: flow_9_15_0_0 - 1000 edge_9_15_0_0 <= 0
 inactive_no_flow_10_8_0_0: flow_10_8_0_0 - 1000 edge_10_8_0_0 <= 0
 inactive_no_flow_10_9_0_0: flow_10_9_0_0 - 1000 edge_10_9_0_0 <= 0
 inactive_no_flow_10_12_0_0: flow_10_12_0_0 - 1000 edge_10_12_0_0 <= 0
 inactive_no_flow_11_1_0_0: flow_11_1_0_0 - 1000 edge_11_1_0_0 <= 0
 inactive_no_flow_11_2_0_0: flow_11_2_0_0 - 1000 edge_11_2_0_0 <= 0
 inactive_no_flow_11_3_0_0: flow_11_3_0_0 - 1000 edge_11_3_0_0 <= 0
 inactive_no_flow_11_8_0_0: flow_11_8_0_0 - 1000 edge_11_8_0_0 <= 0
 inactive_no_flow_11_9_0_0: flow_11_9_0_0 - 1000 edge_11_9_0_0 <= 0
 inactive_no_flow_11_10_0_0: flow_11_10_0_0 - 1000 edge_11_10_0_0 <= 0
 inactive_no_flow_11_12_0_0: flow_11_12_0_0 - 1000 edge_11_12_0_0 <= 0
 inactive_no_flow_11_14_0_0: flow_11_14_0_0 - 1000 edge_11_14_0_0 <= 0
 inactive_no_flow_11_15_0_0: flow_11_15_0_0 - 1000 edge_11_15_0_0 <= 0
 inactive_no_flow_12_1_0_0: flow_12_1_0_0 - 1000 edge_12_1_0_0 <= 0
 inactive_no_flow_12_2_0_0: flow_12_2_0_0 - 1000 edge_12_2_0_0 <= 0
 inactive_no_flow_12_3_0_0: flow_12_3_0_0 - 1000 edge_12_3_0_0 <= 0
 inactive_no_flow_12_8_0_0: flow_12_8_0_0 - 1000 edge_12_8_0_0 <= 0
 inactive_no_flow_12_9_0_0: flow_12_9_0_0 - 1000 edge_12_9_0_0 <= 0
 inactive_no_flow_12_10_0_0: flow_12_10_0_0 - 1000 edge_12_10_0_0 <= 0
 inactive_no_flow_12_11_0_0: flow_12_11_0_0 - 1000 edge_12_11_0_0 <= 0
 inactive_no_flow_12_14_0_0: flow_12_14_0_0 - 1000 edge_12_14_0_0 <= 0
 inactive_no_flow_12_15_0_0: flow_12_15_0_0 - 1000 edge_12_15_0_0 <= 0
 inactive_no_flow_14_1_0_0: flow_14_1_0_0 - 1000 edge_14_1_0_0 <= 0
 inactive_no_flow_14_2_0_0: flow_14_2_0_0 - 1000 edge_14_2_0_0 <= 0
 inactive_no_flow_14_3_0_0: flow_14_3_0_0 - 1000 edge_14_3_0_0 <= 0
 inactive_no_flow_14_7_0_0: flow_14_7_0_0 - 1000 edge_14_7_0_0 <= 0
 inactive_no_flow_14_8_0_0: flow_14_8_0_0 - 1000 edge_14_8_0_0 <= 0
 inactive_no_flow_14_9_0_0: flow_14_9_0_0 - 1000 edge_14_9_0_0 <= 0
 inactive_no_flow_14_10_0_0: flow_14_10_0_0 - 1000 edge_14_10_0_0 <= 0
 inactive_no_flow_14_11_0_0: flow_14_11_0_0 - 1000 edge_14_11_0_0 <= 0
 inactive_no_flow_14_12_0_0: flow_14_12_0_0 - 1000 edge_14_12_0_0 <= 0
 inactive_no_flow_14_15_0_0: flow_14_15_0_0 - 1000 edge_14_15_0_0 <= 0
 inactive_no_flow_15_1_0_0: flow_15_1_0_0 - 1000 edge_15_1_0_0 <= 0
 inactive_no_flow_15_2_0_0: flow_15_2_0_0 - 1000 edge_15_2_0_0 <= 0
 inactive_no_flow_15_3_0_0: flow_15_3_0_0 - 1000 edge_15_3_0_0 <= 0
 inactive_no_flow_15_7_0_0: flow_15_7_0_0 - 1000 edge_15_7_0_0 <= 0
 inactive_no_flow_15_8_0_0: flow_15_8_0_0 - 1000 edge_15_8_0_0 <= 0
 inactive_no_flow_15_9_0_0: flow_15_9_0_0 - 1000 edge_15_9_0_0 <= 0
 inactive_no_flow_15_10_0_0: flow_15_10_0_0 - 1000 edge_15_10_0_0 <= 0
 inactive_no_flow_15_11_0_0: flow_15_11_0_0 - 1000 edge_15_11_0_0 <= 0
 inactive_no_flow_15_12_0_0: flow_15_12_0_0 - 1000 edge_15_12_0_0 <= 0
 inactive_no_flow_15_14_0_0: flow_15_14_0_0 - 1000 edge_15_14_0_0 <= 0
Bounds
Binaries
 edge_0_1_0_0 edge_0_2_0_0 edge_0_3_0_0 edge_0_7_0_0 edge_0_14_0_0
 edge_0_15_0_0 edge_1_2_0_0 edge_1_3_0_0 edge_1_7_0_0 edge_1_8_0_0
 edge_1_9_0_0 edge_1_10_0_0 edge_1_11_0_0 edge_1_12_0_0 edge_1_15_0_0
 edge_2_1_0_0 edge_2_3_0_0 edge_2_7_0_0 edge_2_8_0_0 edge_2_9_0_0
 edge_2_10_0_0 edge_2_11_0_0 edge_2_12_0_0 edge_2_14_0_0 edge_2_15_0_0
 edge_3_1_0_0 edge_3_2_0_0 edge_3_7_0_0 edge_3_8_0_0 edge_3_9_0_0
 edge_3_10_0_0 edge_3_11_0_0 edge_3_12_0_0 edge_3_14_0_0 edge_3_15_0_0
 edge_7_1_0_0 edge_7_2_0_0 edge_7_3_0_0 edge_7_8_0_0 edge_7_9_0_0
 edge_7_10_0_0 edge_7_11_0_0 edge_7_12_0_0 edge_7_14_0_0 edge_7_15_0_0
 edge_8_1_0_0 edge_8_2_0_0 edge_8_3_0_0 edge_8_9_0_0 edge_8_10_0_0
 edge_8_11_0_0 edge_8_12_0_0 edge_8_14_0_0 edge_8_15_0_0 edge_9_1_0_0
 edge_9_2_0_0 edge_9_3_0_0 edge_9_7_0_0 edge_9_8_0_0 edge_9_10_0_0
 edge_9_11_0_0 edge_9_12_0_0 edge_9_14_0_0 edge_9_15_0_0 edge_10_8_0_0
 edge_10_9_0_0 edge_10_12_0_0 edge_11_1_0_0 edge_11_2_0_0 edge_11_3_0_0
 edge_11_8_0_0 edge_11_9_0_0 edge_11_10_0_0 edge_11_12_0_0 edge_11_14_0_0
 edge_11_15_0_0 edge_12_1_0_0 edge_12_2_0_0 edge_12_3_0_0 edge_12_8_0_0
 edge_12_9_0_0 edge_12_10_0_0 edge_12_11_0_0 edge_12_14_0_0 edge_12_15_0_0
 edge_14_1_0_0 edge_14_2_0_0 edge_14_3_0_0 edge_14_7_0_0 edge_14_8_0_0
 edge_14_9_0_0 edge_14_10_0_0 edge_14_11_0_0 edge_14_12_0_0 edge_14_15_0_0
 edge_15_1_0_0 edge_15_2_0_0 edge_15_3_0_0 edge_15_7_0_0 edge_15_8_0_0
 edge_15_9_0_0 edge_15_10_0_0 edge_15_11_0_0 edge_15_12_0_0 edge_15_14_0_0
End
